c defined variables: 27 28 29 30 31 32 33 34 35 36 37 38 39 40 41 42 43 44 45 46 47 48 49 50 51 52 53 54 55 56 57 58 59 60 61 62 63 64 65 66 67 68 69 72 73 74 75 76 77 78 79 80 81 82 83 84 85 86 87 88 89 90 91 92 94 95 96 97 98 99 100 101 102 103 104 105 106 107 108 109 110 111 112 113 114 115 116 117 118 119 120 121 122 123 124 125 126 127 128 129 130 131 132 133 134 135 136 137 138 139 140 141 142 143 144 145 146 147 148 149 150 151 152 153 154 155 156 157 158 159 160 161 162 163 164 165 166 167 168 169 170 171 172 173 174 175 176 177 178 179 180 181 182 183 184 185 186 187 
p cnf 824 1254
a 1 3 4 5 6 7 8 9 10 11 12 13 14 15 16 17 18 19 20 21 22 23 24 0
e 70 71 93 27 28 29 30 31 32 33 34 35 36 37 38 39 40 41 42 43 44 45 46 47 48 49 50 51 52 53 54 55 56 57 58 59 60 61 62 63 64 65 66 67 68 69 72 73 74 75 76 77 78 79 80 81 82 83 84 85 86 87 88 89 90 91 92 94 95 96 97 98 99 100 101 102 103 104 105 106 107 108 109 110 111 112 113 114 115 116 117 118 119 120 121 122 123 124 125 126 127 128 129 130 131 132 133 134 135 136 137 138 139 140 141 142 143 144 145 146 147 148 149 150 151 152 153 154 155 156 157 158 159 160 161 162 163 164 165 166 167 168 169 170 171 172 173 174 175 176 177 178 179 180 181 182 183 184 185 186 187 673 674 675 676 677 678 679 680 681 682 683 684 685 686 687 688 689 690 691 692 693 694 695 696 697 698 699 700 701 702 703 704 705 706 707 708 709 710 711 712 713 714 715 716 717 718 719 720 721 722 723 724 725 726 727 728 729 730 731 732 733 734 735 736 737 738 739 740 741 742 743 744 745 746 747 748 749 750 751 752 753 754 755 756 757 758 759 760 761 762 763 764 765 766 767 768 769 770 771 772 773 774 775 776 777 778 779 780 781 782 783 784 785 786 787 788 789 790 791 792 793 794 795 796 797 798 799 800 801 802 803 804 805 806 807 808 809 810 811 812 813 814 815 816 817 818 819 820 821 822 823 824 0
d 2 1 3 4 5 6 7 8 9 10 11 12 13 0
d 25 3 4 5 6 7 8 9 10 11 12 13 0
d 26 14 15 16 17 18 19 20 21 22 23 24 0
674 -27 0
-674 27 0
675 -28 0
-675 28 0
676 -29 0
-676 29 0
677 -30 0
-677 30 0
678 -31 0
-678 31 0
679 -32 0
-679 32 0
680 -33 0
-680 33 0
681 -34 0
-681 34 0
682 -35 0
-682 35 0
683 -36 0
-683 36 0
684 -37 0
-684 37 0
685 -38 0
-685 38 0
686 -39 0
-686 39 0
687 -40 0
-687 40 0
688 -41 0
-688 41 0
689 -42 0
-689 42 0
690 -43 0
-690 43 0
691 -44 0
-691 44 0
692 -45 0
-692 45 0
693 -46 0
-693 46 0
694 -47 0
-694 47 0
695 -48 0
-695 48 0
696 -49 0
-696 49 0
697 -50 0
-697 50 0
698 -51 0
-698 51 0
699 -52 0
-699 52 0
700 -53 0
-700 53 0
701 -54 0
-701 54 0
702 -55 0
-702 55 0
703 -56 0
-703 56 0
704 -57 0
-704 57 0
705 -58 0
-705 58 0
706 -59 0
-706 59 0
707 -60 0
-707 60 0
708 -61 0
-708 61 0
709 -62 0
-709 62 0
710 -63 0
-710 63 0
711 -64 0
-711 64 0
712 -65 0
-712 65 0
713 -66 0
-713 66 0
714 -67 0
-714 67 0
715 -68 0
-715 68 0
716 -69 0
-716 69 0
717 -72 0
-717 72 0
-673 -73 0
673 73 0
718 -74 0
-718 74 0
719 -75 0
-719 75 0
720 -76 0
-720 76 0
721 -77 0
-721 77 0
722 -78 0
-722 78 0
723 -79 0
-723 79 0
724 -80 0
-724 80 0
725 -81 0
-725 81 0
726 -82 0
-726 82 0
727 -83 0
-727 83 0
728 -84 0
-728 84 0
729 -85 0
-729 85 0
730 -86 0
-730 86 0
731 -87 0
-731 87 0
732 -88 0
-732 88 0
733 -89 0
-733 89 0
734 -90 0
-734 90 0
735 -91 0
-735 91 0
736 -92 0
-736 92 0
737 -94 0
-737 94 0
738 -95 0
-738 95 0
739 -96 0
-739 96 0
740 -97 0
-740 97 0
741 -98 0
-741 98 0
742 -99 0
-742 99 0
743 -100 0
-743 100 0
744 -101 0
-744 101 0
745 -102 0
-745 102 0
746 -103 0
-746 103 0
747 -104 0
-747 104 0
748 -105 0
-748 105 0
749 -106 0
-749 106 0
750 -107 0
-750 107 0
751 -108 0
-751 108 0
752 -109 0
-752 109 0
753 -110 0
-753 110 0
754 -111 0
-754 111 0
755 -112 0
-755 112 0
756 -113 0
-756 113 0
757 -114 0
-757 114 0
758 -115 0
-758 115 0
759 -116 0
-759 116 0
760 -117 0
-760 117 0
-761 -118 0
761 118 0
762 -119 0
-762 119 0
763 -120 0
-763 120 0
764 -121 0
-764 121 0
765 -122 0
-765 122 0
766 -123 0
-766 123 0
767 -124 0
-767 124 0
768 -125 0
-768 125 0
769 -126 0
-769 126 0
770 -127 0
-770 127 0
771 -128 0
-771 128 0
772 -129 0
-772 129 0
773 -130 0
-773 130 0
774 -131 0
-774 131 0
775 -132 0
-775 132 0
776 -133 0
-776 133 0
777 -134 0
-777 134 0
778 -135 0
-778 135 0
779 -136 0
-779 136 0
780 -137 0
-780 137 0
781 -138 0
-781 138 0
782 -139 0
-782 139 0
783 -140 0
-783 140 0
784 -141 0
-784 141 0
785 -142 0
-785 142 0
786 -143 0
-786 143 0
787 -144 0
-787 144 0
788 -145 0
-788 145 0
789 -146 0
-789 146 0
790 -147 0
-790 147 0
791 -148 0
-791 148 0
792 -149 0
-792 149 0
793 -150 0
-793 150 0
794 -151 0
-794 151 0
795 -152 0
-795 152 0
796 -153 0
-796 153 0
797 -154 0
-797 154 0
798 -155 0
-798 155 0
799 -156 0
-799 156 0
800 -157 0
-800 157 0
801 -158 0
-801 158 0
802 -159 0
-802 159 0
803 -160 0
-803 160 0
804 -161 0
-804 161 0
805 -162 0
-805 162 0
806 -163 0
-806 163 0
807 -164 0
-807 164 0
808 -165 0
-808 165 0
809 -166 0
-809 166 0
810 -167 0
-810 167 0
811 -168 0
-811 168 0
812 -169 0
-812 169 0
813 -170 0
-813 170 0
-673 -171 0
673 171 0
814 -172 0
-814 172 0
-673 -173 0
673 173 0
815 -174 0
-815 174 0
816 -175 0
-816 175 0
817 -176 0
-817 176 0
818 -177 0
-818 177 0
819 -178 0
-819 178 0
820 -179 0
-820 179 0
821 -180 0
-821 180 0
822 -181 0
-822 181 0
823 -182 0
-823 182 0
824 -183 0
-824 183 0
-673 -184 0
673 184 0
673 -185 0
-673 185 0
673 -186 0
-673 186 0
673 -187 0
-673 187 0
-27 -24 0
-27 13 0
27 24 -13 0
-28 24 0
-28 -13 0
28 -24 13 0
-29 -27 0
-29 -28 0
29 27 28 0
-30 -22 0
-30 11 0
30 22 -11 0
-31 22 0
-31 -11 0
31 -22 11 0
-32 -30 0
-32 -31 0
32 30 31 0
-33 -23 0
-33 12 0
33 23 -12 0
-34 23 0
-34 -12 0
34 -23 12 0
-35 -33 0
-35 -34 0
35 33 34 0
-36 32 0
-36 35 0
36 -32 -35 0
-37 29 0
-37 36 0
37 -29 -36 0
-38 -14 0
-38 3 0
38 14 -3 0
-39 14 0
-39 -3 0
39 -14 3 0
-40 -38 0
-40 -39 0
40 38 39 0
-41 -15 0
-41 4 0
41 15 -4 0
-42 15 0
-42 -4 0
42 -15 4 0
-43 -41 0
-43 -42 0
43 41 42 0
-44 40 0
-44 43 0
44 -40 -43 0
-45 -16 0
-45 5 0
45 16 -5 0
-46 16 0
-46 -5 0
46 -16 5 0
-47 -45 0
-47 -46 0
47 45 46 0
-48 -17 0
-48 6 0
48 17 -6 0
-49 17 0
-49 -6 0
49 -17 6 0
-50 -48 0
-50 -49 0
50 48 49 0
-51 47 0
-51 50 0
51 -47 -50 0
-52 44 0
-52 51 0
52 -44 -51 0
-53 -18 0
-53 7 0
53 18 -7 0
-54 18 0
-54 -7 0
54 -18 7 0
-55 -53 0
-55 -54 0
55 53 54 0
-56 -19 0
-56 8 0
56 19 -8 0
-57 19 0
-57 -8 0
57 -19 8 0
-58 -56 0
-58 -57 0
58 56 57 0
-59 55 0
-59 58 0
59 -55 -58 0
-60 -20 0
-60 9 0
60 20 -9 0
-61 20 0
-61 -9 0
61 -20 9 0
-62 -60 0
-62 -61 0
62 60 61 0
-63 -21 0
-63 10 0
63 21 -10 0
-64 21 0
-64 -10 0
64 -21 10 0
-65 -63 0
-65 -64 0
65 63 64 0
-66 62 0
-66 65 0
66 -62 -65 0
-67 59 0
-67 66 0
67 -59 -66 0
-68 52 0
-68 67 0
68 -52 -67 0
-69 37 0
-69 68 0
69 -37 -68 0
-70 26 0
-70 -25 0
70 -26 25 0
-71 -26 0
-71 25 0
71 26 -25 0
-72 -70 0
-72 -71 0
72 70 71 0
-73 69 0
-73 -72 0
73 -69 72 0
-74 13 0
-74 3 0
74 -13 -3 0
-75 5 0
-75 3 0
75 -5 -3 0
-76 4 0
-76 75 0
76 -4 -75 0
-77 6 0
-77 3 0
77 -6 -3 0
-78 76 0
-78 77 0
78 -76 -77 0
-79 7 0
-79 3 0
79 -7 -3 0
-80 78 0
-80 79 0
80 -78 -79 0
-81 8 0
-81 3 0
81 -8 -3 0
-82 80 0
-82 81 0
82 -80 -81 0
-83 9 0
-83 3 0
83 -9 -3 0
-84 82 0
-84 83 0
84 -82 -83 0
-85 10 0
-85 3 0
85 -10 -3 0
-86 84 0
-86 85 0
86 -84 -85 0
-87 11 0
-87 3 0
87 -11 -3 0
-88 86 0
-88 87 0
88 -86 -87 0
-89 12 0
-89 3 0
89 -12 -3 0
-90 88 0
-90 89 0
90 -88 -89 0
-91 -1 0
-91 90 0
91 1 -90 0
-92 -74 0
-92 -91 0
92 74 91 0
-93 -2 0
-93 -74 0
93 2 74 0
-94 91 0
-94 -93 0
94 -91 93 0
-95 -92 0
-95 -94 0
95 92 94 0
-96 -24 0
-96 95 0
96 24 -95 0
-97 24 0
-97 -95 0
97 -24 95 0
-98 -96 0
-98 -97 0
98 96 97 0
-99 -1 0
-99 86 0
99 1 -86 0
-100 -87 0
-100 99 0
100 87 -99 0
-101 87 0
-101 -99 0
101 -87 99 0
-102 -100 0
-102 -101 0
102 100 101 0
-103 -22 0
-103 -102 0
103 22 102 0
-104 22 0
-104 102 0
104 -22 -102 0
-105 -103 0
-105 -104 0
105 103 104 0
-106 -1 0
-106 88 0
106 1 -88 0
-107 -89 0
-107 106 0
107 89 -106 0
-108 89 0
-108 -106 0
108 -89 106 0
-109 -107 0
-109 -108 0
109 107 108 0
-110 -23 0
-110 -109 0
110 23 109 0
-111 23 0
-111 109 0
111 -23 -109 0
-112 -110 0
-112 -111 0
112 110 111 0
-113 105 0
-113 112 0
113 -105 -112 0
-114 98 0
-114 113 0
114 -98 -113 0
-115 4 0
-115 3 0
115 -4 -3 0
-116 -1 0
-116 115 0
116 1 -115 0
-117 1 0
-117 -115 0
117 -1 115 0
118 -116 0
118 -117 0
-118 116 117 0
-119 -15 0
-119 -118 0
119 15 118 0
-120 15 0
-120 118 0
120 -15 -118 0
-121 -119 0
-121 -120 0
121 119 120 0
-122 14 0
-122 121 0
122 -14 -121 0
-123 -75 0
-123 116 0
123 75 -116 0
-124 75 0
-124 -116 0
124 -75 116 0
-125 -123 0
-125 -124 0
125 123 124 0
-126 -16 0
-126 -125 0
126 16 125 0
-127 16 0
-127 125 0
127 -16 -125 0
-128 -126 0
-128 -127 0
128 126 127 0
-129 -1 0
-129 76 0
129 1 -76 0
-130 -77 0
-130 129 0
130 77 -129 0
-131 77 0
-131 -129 0
131 -77 129 0
-132 -130 0
-132 -131 0
132 130 131 0
-133 -17 0
-133 -132 0
133 17 132 0
-134 17 0
-134 132 0
134 -17 -132 0
-135 -133 0
-135 -134 0
135 133 134 0
-136 128 0
-136 135 0
136 -128 -135 0
-137 122 0
-137 136 0
137 -122 -136 0
-138 -1 0
-138 78 0
138 1 -78 0
-139 -79 0
-139 138 0
139 79 -138 0
-140 79 0
-140 -138 0
140 -79 138 0
-141 -139 0
-141 -140 0
141 139 140 0
-142 -18 0
-142 -141 0
142 18 141 0
-143 18 0
-143 141 0
143 -18 -141 0
-144 -142 0
-144 -143 0
144 142 143 0
-145 -1 0
-145 80 0
145 1 -80 0
-146 -81 0
-146 145 0
146 81 -145 0
-147 81 0
-147 -145 0
147 -81 145 0
-148 -146 0
-148 -147 0
148 146 147 0
-149 -19 0
-149 -148 0
149 19 148 0
-150 19 0
-150 148 0
150 -19 -148 0
-151 -149 0
-151 -150 0
151 149 150 0
-152 144 0
-152 151 0
152 -144 -151 0
-153 -1 0
-153 82 0
153 1 -82 0
-154 -83 0
-154 153 0
154 83 -153 0
-155 83 0
-155 -153 0
155 -83 153 0
-156 -154 0
-156 -155 0
156 154 155 0
-157 -20 0
-157 -156 0
157 20 156 0
-158 20 0
-158 156 0
158 -20 -156 0
-159 -157 0
-159 -158 0
159 157 158 0
-160 -1 0
-160 84 0
160 1 -84 0
-161 -85 0
-161 160 0
161 85 -160 0
-162 85 0
-162 -160 0
162 -85 160 0
-163 -161 0
-163 -162 0
163 161 162 0
-164 -21 0
-164 -163 0
164 21 163 0
-165 21 0
-165 163 0
165 -21 -163 0
-166 -164 0
-166 -165 0
166 164 165 0
-167 159 0
-167 166 0
167 -159 -166 0
-168 152 0
-168 167 0
168 -152 -167 0
-169 137 0
-169 168 0
169 -137 -168 0
-170 114 0
-170 169 0
170 -114 -169 0
-171 170 0
-171 71 0
171 -170 -71 0
-172 90 0
-172 74 0
172 -90 -74 0
-173 25 0
-173 172 0
173 -25 -172 0
-174 -12 0
-174 -11 0
174 12 11 0
-175 -13 0
-175 174 0
175 13 -174 0
-176 -4 0
-176 -3 0
176 4 3 0
-177 -6 0
-177 -5 0
177 6 5 0
-178 176 0
-178 177 0
178 -176 -177 0
-179 -8 0
-179 -7 0
179 8 7 0
-180 -10 0
-180 -9 0
180 10 9 0
-181 179 0
-181 180 0
181 -179 -180 0
-182 178 0
-182 181 0
182 -178 -181 0
-183 175 0
-183 182 0
183 -175 -182 0
-184 -25 0
-184 183 0
184 25 -183 0
-185 -173 0
-185 -184 0
185 173 184 0
-186 -171 0
-186 185 0
186 171 -185 0
-187 -73 0
-187 186 0
187 73 -186 0
187 0
673 0
13 -674 0
-24 -674 0
-13 24 674 0
-13 -675 0
24 -675 0
13 -24 675 0
-27 -676 0
-28 -676 0
27 28 676 0
11 -677 0
-22 -677 0
-11 22 677 0
-11 -678 0
22 -678 0
11 -22 678 0
-30 -679 0
-31 -679 0
30 31 679 0
12 -680 0
-23 -680 0
-12 23 680 0
-12 -681 0
23 -681 0
12 -23 681 0
-33 -682 0
-34 -682 0
33 34 682 0
32 -683 0
35 -683 0
-32 -35 683 0
29 -684 0
36 -684 0
-29 -36 684 0
3 -685 0
-14 -685 0
-3 14 685 0
-3 -686 0
14 -686 0
3 -14 686 0
-38 -687 0
-39 -687 0
38 39 687 0
4 -688 0
-15 -688 0
-4 15 688 0
-4 -689 0
15 -689 0
4 -15 689 0
-41 -690 0
-42 -690 0
41 42 690 0
40 -691 0
43 -691 0
-40 -43 691 0
5 -692 0
-16 -692 0
-5 16 692 0
-5 -693 0
16 -693 0
5 -16 693 0
-45 -694 0
-46 -694 0
45 46 694 0
6 -695 0
-17 -695 0
-6 17 695 0
-6 -696 0
17 -696 0
6 -17 696 0
-48 -697 0
-49 -697 0
48 49 697 0
47 -698 0
50 -698 0
-47 -50 698 0
44 -699 0
51 -699 0
-44 -51 699 0
7 -700 0
-18 -700 0
-7 18 700 0
-7 -701 0
18 -701 0
7 -18 701 0
-53 -702 0
-54 -702 0
53 54 702 0
8 -703 0
-19 -703 0
-8 19 703 0
-8 -704 0
19 -704 0
8 -19 704 0
-56 -705 0
-57 -705 0
56 57 705 0
55 -706 0
58 -706 0
-55 -58 706 0
9 -707 0
-20 -707 0
-9 20 707 0
-9 -708 0
20 -708 0
9 -20 708 0
-60 -709 0
-61 -709 0
60 61 709 0
10 -710 0
-21 -710 0
-10 21 710 0
-10 -711 0
21 -711 0
10 -21 711 0
-63 -712 0
-64 -712 0
63 64 712 0
62 -713 0
65 -713 0
-62 -65 713 0
59 -714 0
66 -714 0
-59 -66 714 0
52 -715 0
67 -715 0
-52 -67 715 0
37 -716 0
68 -716 0
-37 -68 716 0
-70 -717 0
-71 -717 0
70 71 717 0
3 -718 0
13 -718 0
-3 -13 718 0
3 -719 0
5 -719 0
-3 -5 719 0
4 -720 0
75 -720 0
-4 -75 720 0
3 -721 0
6 -721 0
-3 -6 721 0
76 -722 0
77 -722 0
-76 -77 722 0
3 -723 0
7 -723 0
-3 -7 723 0
78 -724 0
79 -724 0
-78 -79 724 0
3 -725 0
8 -725 0
-3 -8 725 0
80 -726 0
81 -726 0
-80 -81 726 0
3 -727 0
9 -727 0
-3 -9 727 0
82 -728 0
83 -728 0
-82 -83 728 0
3 -729 0
10 -729 0
-3 -10 729 0
84 -730 0
85 -730 0
-84 -85 730 0
3 -731 0
11 -731 0
-3 -11 731 0
86 -732 0
87 -732 0
-86 -87 732 0
3 -733 0
12 -733 0
-3 -12 733 0
88 -734 0
89 -734 0
-88 -89 734 0
-1 -735 0
90 -735 0
1 -90 735 0
-74 -736 0
-91 -736 0
74 91 736 0
91 -737 0
-93 -737 0
-91 93 737 0
-92 -738 0
-94 -738 0
92 94 738 0
-24 -739 0
95 -739 0
24 -95 739 0
24 -740 0
-95 -740 0
-24 95 740 0
-96 -741 0
-97 -741 0
96 97 741 0
-1 -742 0
86 -742 0
1 -86 742 0
-87 -743 0
99 -743 0
87 -99 743 0
87 -744 0
-99 -744 0
-87 99 744 0
-100 -745 0
-101 -745 0
100 101 745 0
-22 -746 0
-102 -746 0
22 102 746 0
22 -747 0
102 -747 0
-22 -102 747 0
-103 -748 0
-104 -748 0
103 104 748 0
-1 -749 0
88 -749 0
1 -88 749 0
-89 -750 0
106 -750 0
89 -106 750 0
89 -751 0
-106 -751 0
-89 106 751 0
-107 -752 0
-108 -752 0
107 108 752 0
-23 -753 0
-109 -753 0
23 109 753 0
23 -754 0
109 -754 0
-23 -109 754 0
-110 -755 0
-111 -755 0
110 111 755 0
105 -756 0
112 -756 0
-105 -112 756 0
98 -757 0
113 -757 0
-98 -113 757 0
3 -758 0
4 -758 0
-3 -4 758 0
-1 -759 0
115 -759 0
1 -115 759 0
1 -760 0
-115 -760 0
-1 115 760 0
-116 -761 0
-117 -761 0
116 117 761 0
-15 -762 0
-118 -762 0
15 118 762 0
15 -763 0
118 -763 0
-15 -118 763 0
-119 -764 0
-120 -764 0
119 120 764 0
14 -765 0
121 -765 0
-14 -121 765 0
-75 -766 0
116 -766 0
75 -116 766 0
75 -767 0
-116 -767 0
-75 116 767 0
-123 -768 0
-124 -768 0
123 124 768 0
-16 -769 0
-125 -769 0
16 125 769 0
16 -770 0
125 -770 0
-16 -125 770 0
-126 -771 0
-127 -771 0
126 127 771 0
-1 -772 0
76 -772 0
1 -76 772 0
-77 -773 0
129 -773 0
77 -129 773 0
77 -774 0
-129 -774 0
-77 129 774 0
-130 -775 0
-131 -775 0
130 131 775 0
-17 -776 0
-132 -776 0
17 132 776 0
17 -777 0
132 -777 0
-17 -132 777 0
-133 -778 0
-134 -778 0
133 134 778 0
128 -779 0
135 -779 0
-128 -135 779 0
122 -780 0
136 -780 0
-122 -136 780 0
-1 -781 0
78 -781 0
1 -78 781 0
-79 -782 0
138 -782 0
79 -138 782 0
79 -783 0
-138 -783 0
-79 138 783 0
-139 -784 0
-140 -784 0
139 140 784 0
-18 -785 0
-141 -785 0
18 141 785 0
18 -786 0
141 -786 0
-18 -141 786 0
-142 -787 0
-143 -787 0
142 143 787 0
-1 -788 0
80 -788 0
1 -80 788 0
-81 -789 0
145 -789 0
81 -145 789 0
81 -790 0
-145 -790 0
-81 145 790 0
-146 -791 0
-147 -791 0
146 147 791 0
-19 -792 0
-148 -792 0
19 148 792 0
19 -793 0
148 -793 0
-19 -148 793 0
-149 -794 0
-150 -794 0
149 150 794 0
144 -795 0
151 -795 0
-144 -151 795 0
-1 -796 0
82 -796 0
1 -82 796 0
-83 -797 0
153 -797 0
83 -153 797 0
83 -798 0
-153 -798 0
-83 153 798 0
-154 -799 0
-155 -799 0
154 155 799 0
-20 -800 0
-156 -800 0
20 156 800 0
20 -801 0
156 -801 0
-20 -156 801 0
-157 -802 0
-158 -802 0
157 158 802 0
-1 -803 0
84 -803 0
1 -84 803 0
-85 -804 0
160 -804 0
85 -160 804 0
85 -805 0
-160 -805 0
-85 160 805 0
-161 -806 0
-162 -806 0
161 162 806 0
-21 -807 0
-163 -807 0
21 163 807 0
21 -808 0
163 -808 0
-21 -163 808 0
-164 -809 0
-165 -809 0
164 165 809 0
159 -810 0
166 -810 0
-159 -166 810 0
152 -811 0
167 -811 0
-152 -167 811 0
137 -812 0
168 -812 0
-137 -168 812 0
114 -813 0
169 -813 0
-114 -169 813 0
74 -814 0
90 -814 0
-74 -90 814 0
-11 -815 0
-12 -815 0
11 12 815 0
-13 -816 0
174 -816 0
13 -174 816 0
-3 -817 0
-4 -817 0
3 4 817 0
-5 -818 0
-6 -818 0
5 6 818 0
176 -819 0
177 -819 0
-176 -177 819 0
-7 -820 0
-8 -820 0
7 8 820 0
-9 -821 0
-10 -821 0
9 10 821 0
179 -822 0
180 -822 0
-179 -180 822 0
178 -823 0
181 -823 0
-178 -181 823 0
175 -824 0
182 -824 0
-175 -182 824 0
